DIMENSION: 9
EDGE_WEIGHT_TYPE: EXPLICIT
EDGE_WEIGHT_FORMAT: FULL_MATRIX
EDGE_WEIGHT_SECTION:
32767 47 67 66 87 85 15 43 36 
47 32767 8 7 35 75 38 89 79 
67 8 32767 93 11 2 81 58 18 
66 7 93 32767 70 32767 32767 78 95 
87 35 11 70 32767 49 88 74 61 
85 75 2 32767 49 32767 51 96 65 
15 38 81 32767 88 51 32767 53 86 
43 89 58 78 74 96 53 32767 58 
36 79 18 95 61 65 86 58 32767 
EOF